gil262_1
0 137 113 205 175 236 94 169 237 253 23 69 226 143 22 92 125 115 59 187 52 257 90 188 50 254 5 68 51 114 87 174 71 44 213 36 29 148 64 255 15 130 135 20 202 124 108 216 11 39 207 95 218 185 42 203 17 145 24 73 102 223 91 31 197 84 198 112 157 127 166 256 120 154 80 246 3 45 33 150 221 111 82 167 244 243 214 151 241 43 217 233 141 61 149 77 11 229 48 232 162 195 70 101 179 25 14 182 242 201 133 260 165 21 38 160 126 76 85 210 11 66 30 219 178 225 227 116 153 37 220 258 152 176 172 168 156 204 196 230 98 161 251 10 194 107 40 164 192 75 228 58 191 105 199 57 224 110 129 190 104 208 60 34 140 155 186 4 117 239 121 32 170 41 109 144 183 193 231 27 181 97 234 177 18 28 96 147 158 189 249 74 261 55 235 5 54 209 206 78 180 238 79 63 159 171 146 72 122 53 222 252 119 4 123 248 35 132 173 103 62 106 163 259 100 89 212 56 49 81 0